(set-logic QF_LIA)
(set-info :ran/ran2.smt2)
(set-info :smt-lib-version 2.0)
(declare-fun x1 () Int)
(declare-fun x2 () Int)
(declare-fun x3 () Int)
(declare-fun x4 () Int)
(declare-fun x5 () Int)
(assert (<= (+ (* (- 10) x1) (* 8 x2) (* (- 1) x3) (* 2 x4) (* (- 7) x5) ) 49))
(assert (<= (+ (* (- 4) x1) (* 3 x2) (* 2 x3) (* 6 x4) (* 2 x5) ) (- 1259)))
(assert (<= (+ (* 10 x1) (* (- 6) x2) (* (- 9) x3) (* (- 7) x4) (* (- 8) x5) ) (- 1556)))
(assert (<= (+ (* 10 x1) (* 6 x2) (* 3 x3) (* 8 x4) (* 3 x5) ) (- 608)))
(assert (<= (+ (* 2 x1) (* (- 4) x2) (* (- 7) x3) (* (- 8) x4) (* (- 7) x5) ) 795))
(assert (<= (+ (* (- 1) x1) (* (- 7) x2) (* (- 8) x3) (* 6 x4) (* 6 x5) ) (- 1479)))
(assert (<= (+ (* 9 x1) (* 10 x2) (* 7 x3) (* 0 x4) (* 5 x5) ) 266))
(assert (<= (+ (* 8 x1) (* 2 x2) (* 0 x3) (* 8 x4) (* 3 x5) ) 85))
(assert (<= (+ (* 0 x1) (* 2 x2) (* (- 4) x3) (* (- 10) x4) (* (- 1) x5) ) (- 1543)))
(assert (<= (+ (* (- 6) x1) (* 9 x2) (* (- 10) x3) (* (- 3) x4) (* 9 x5) ) (- 820)))
(assert (<= (+ (* 1 x1) (* 0 x2) (* 0 x3) (* 0 x4) (* 0 x5) ) 1778))
(assert (<= (+ (* (- 1) x1) (* 0 x2) (* 0 x3) (* 0 x4) (* 0 x5) ) 1778))
(assert (<= (+ (* 0 x1) (* 1 x2) (* 0 x3) (* 0 x4) (* 0 x5) ) 1778))
(assert (<= (+ (* 0 x1) (* (- 1) x2) (* 0 x3) (* 0 x4) (* 0 x5) ) 1778))
(assert (<= (+ (* 0 x1) (* 0 x2) (* 1 x3) (* 0 x4) (* 0 x5) ) 1778))
(assert (<= (+ (* 0 x1) (* 0 x2) (* (- 1) x3) (* 0 x4) (* 0 x5) ) 1778))
(assert (<= (+ (* 0 x1) (* 0 x2) (* 0 x3) (* 1 x4) (* 0 x5) ) 1778))
(assert (<= (+ (* 0 x1) (* 0 x2) (* 0 x3) (* (- 1) x4) (* 0 x5) ) 1778))
(assert (<= (+ (* 0 x1) (* 0 x2) (* 0 x3) (* 0 x4) (* 1 x5) ) 1778))
(assert (<= (+ (* 0 x1) (* 0 x2) (* 0 x3) (* 0 x4) (* (- 1) x5) ) 1778))
